c Result of efficient AIG-to-CNF conversion using package CNF
p cnf 261 1033
-2 3 169 0
-2 -3 -169 0
2 -3 169 0
2 3 -169 0
-3 4 115 0
-3 -4 -115 0
3 -4 115 0
3 4 -115 0
-4 -5 -88 0
-4 5 88 0
4 5 -88 0
4 -5 88 0
-5 -6 -61 0
-5 6 61 0
5 6 -61 0
5 -6 61 0
-6 7 36 0
-6 -7 -36 0
6 -7 36 0
6 7 -36 0
-7 -8 -35 0
-7 8 35 0
7 8 -35 0
7 -8 35 0
-8 9 19 0
-8 -9 -19 0
8 -9 19 0
8 9 -19 0
-9 10 13 0
-9 -10 -13 0
9 -10 13 0
9 10 -13 0
-10 -11 -12 0
-10 11 12 0
10 11 -12 0
10 -11 12 0
11 -248 -260 0
-11 248 0
-11 260 0
12 -251 -253 0
-12 251 0
-12 253 0
-13 -14 -18 0
-13 14 18 0
13 14 -18 0
13 -14 18 0
-14 15 17 0
-14 16 17 0
-14 15 16 0
14 -15 -16 0
14 -16 -17 0
14 -15 -17 0
15 -256 -260 0
-15 256 0
-15 260 0
16 -248 -253 0
-16 248 0
-16 253 0
17 -251 -254 0
-17 251 0
-17 254 0
18 -247 -254 0
-18 247 0
-18 254 0
-19 20 22 0
-19 22 32 0
-19 20 32 0
19 -20 -32 0
19 -22 -32 0
19 -20 -22 0
-20 -21 -17 0
-20 21 17 0
20 21 -17 0
20 -21 17 0
-21 -15 -16 0
-21 15 16 0
21 15 -16 0
21 -15 16 0
-22 23 30 0
-22 24 25 0
-22 24 30 0
-22 23 25 0
22 -23 -24 0
22 -25 -30 0
23 -259 -260 0
-23 259 0
-23 260 0
24 -249 -253 -259 -260 0
-24 260 0
-24 249 0
-24 259 0
-24 253 0
-25 -26 -29 0
-25 26 29 0
25 26 -29 0
25 -26 29 0
-26 -27 -28 0
-26 27 28 0
26 27 -28 0
26 -27 28 0
27 -253 -256 0
-27 253 0
-27 256 0
28 -248 -254 0
-28 248 0
-28 254 0
29 -251 -252 0
-29 251 0
-29 252 0
-30 31 0
30 -31 0
31 -23 24 0
-31 23 0
-31 -24 0
-32 33 34 0
-32 -33 -34 0
32 -33 34 0
32 33 -34 0
33 -247 -252 0
-33 247 0
-33 252 0
-34 27 29 0
-34 28 29 0
-34 27 28 0
34 -27 -28 0
34 -28 -29 0
34 -27 -29 0
35 -33 -34 0
-35 33 0
-35 34 0
-36 37 39 0
-36 39 60 0
-36 37 60 0
36 -39 -60 0
36 -37 -39 0
36 -37 -60 0
-37 32 38 0
-37 -32 -38 0
37 -32 38 0
37 32 -38 0
-38 20 22 0
-38 -20 -22 0
38 -20 22 0
38 20 -22 0
-39 41 56 0
-39 40 59 0
-39 40 56 0
-39 41 59 0
39 -56 -59 0
39 -40 -41 0
-40 25 30 0
-40 -25 -30 0
40 -25 30 0
40 25 -30 0
-41 42 45 0
-41 45 51 0
-41 42 51 0
41 -42 -51 0
41 -45 -51 0
41 -42 -45 0
-42 -43 -44 0
-42 43 44 0
42 43 -44 0
42 -43 44 0
43 -249 -260 0
-43 249 0
-43 260 0
44 -253 -259 0
-44 253 0
-44 259 0
-45 46 47 0
-45 46 48 0
45 -46 0
45 -47 -48 0
46 -249 -253 -258 -260 0
-46 260 0
-46 249 0
-46 258 0
-46 253 0
47 -254 -259 0
-47 254 0
-47 259 0
-48 -49 -50 0
-48 49 50 0
48 49 -50 0
48 -49 50 0
49 -258 -260 0
-49 258 0
-49 260 0
50 -249 -253 0
-50 249 0
-50 253 0
-51 -52 -55 0
-51 52 55 0
51 52 -55 0
51 -52 55 0
-52 -53 -54 0
-52 53 54 0
52 53 -54 0
52 -53 54 0
53 -254 -256 0
-53 254 0
-53 256 0
54 -248 -252 0
-54 248 0
-54 252 0
55 -250 -251 0
-55 250 0
-55 251 0
-56 57 58 0
-56 -57 -58 0
56 -57 58 0
56 57 -58 0
57 -247 -250 0
-57 247 0
-57 250 0
-58 53 55 0
-58 54 55 0
-58 53 54 0
58 -53 -54 0
58 -54 -55 0
58 -53 -55 0
-59 40 41 0
-59 -40 -41 0
59 -40 41 0
59 40 -41 0
60 -57 -58 0
-60 57 0
-60 58 0
61 -62 -64 0
-61 62 0
-61 64 0
-62 60 63 0
-62 -60 -63 0
62 -60 63 0
62 60 -63 0
-63 37 39 0
-63 -37 -39 0
63 -37 39 0
63 37 -39 0
-64 65 66 0
-64 66 87 0
-64 65 87 0
64 -66 -87 0
64 -65 -66 0
64 -65 -87 0
-65 56 59 0
-65 -56 -59 0
65 -56 59 0
65 56 -59 0
-66 67 69 0
-66 69 83 0
-66 67 83 0
66 -67 -83 0
66 -69 -83 0
66 -67 -69 0
-67 51 68 0
-67 -51 -68 0
67 -51 68 0
67 51 -68 0
-68 42 45 0
-68 -42 -45 0
68 -42 45 0
68 42 -45 0
-69 71 77 0
-69 70 82 0
-69 70 77 0
-69 71 82 0
69 -77 -82 0
69 -70 -71 0
-70 47 48 0
-70 -47 -48 0
70 -47 48 0
70 47 -48 0
-71 72 73 0
-71 72 74 0
71 -72 0
71 -73 -74 0
72 -249 -253 -254 -258 0
-72 258 0
-72 249 0
-72 254 0
-72 253 0
73 -252 -259 0
-73 252 0
-73 259 0
-74 -75 -76 0
-74 75 76 0
74 75 -76 0
74 -75 76 0
75 -253 -258 0
-75 253 0
-75 258 0
76 -249 -254 0
-76 249 0
-76 254 0
-77 -78 -81 0
-77 78 81 0
77 78 -81 0
77 -78 81 0
-78 -79 -80 0
-78 79 80 0
78 79 -80 0
78 -79 80 0
79 -252 -256 0
-79 252 0
-79 256 0
80 -248 -250 0
-80 248 0
-80 250 0
81 -251 -255 0
-81 251 0
-81 255 0
-82 70 71 0
-82 -70 -71 0
82 -70 71 0
82 70 -71 0
-83 84 85 0
-83 -84 -85 0
83 -84 85 0
83 84 -85 0
84 -247 -255 0
-84 247 0
-84 255 0
-85 78 86 0
-85 81 86 0
85 -86 0
85 -78 -81 0
86 -79 -80 0
-86 79 0
-86 80 0
87 -84 -85 0
-87 84 0
-87 85 0
88 -89 -90 0
-88 89 0
-88 90 0
-89 62 64 0
-89 -62 -64 0
89 -62 64 0
89 62 -64 0
90 -91 -93 0
-90 91 0
-90 93 0
-91 87 92 0
-91 -87 -92 0
91 -87 92 0
91 87 -92 0
-92 65 66 0
-92 -65 -66 0
92 -65 66 0
92 65 -66 0
-93 94 96 0
-93 96 114 0
-93 94 114 0
93 -96 -114 0
93 -94 -96 0
93 -94 -114 0
-94 83 95 0
-94 -83 -95 0
94 -83 95 0
94 83 -95 0
-95 67 69 0
-95 -67 -69 0
95 -67 69 0
95 67 -69 0
-96 97 98 0
-96 98 111 0
-96 97 111 0
96 -97 -111 0
96 -98 -111 0
96 -97 -98 0
-97 77 82 0
-97 -77 -82 0
97 -77 82 0
97 77 -82 0
-98 99 100 0
-98 100 106 0
-98 99 106 0
98 -99 -106 0
98 -100 -106 0
98 -99 -100 0
-99 73 74 0
-99 -73 -74 0
99 -73 74 0
99 73 -74 0
-100 101 102 0
-100 101 103 0
100 -101 0
100 -102 -103 0
101 -249 -252 -254 -258 0
-101 258 0
-101 249 0
-101 254 0
-101 252 0
102 -250 -259 0
-102 250 0
-102 259 0
-103 -104 -105 0
-103 104 105 0
103 104 -105 0
103 -104 105 0
104 -254 -258 0
-104 254 0
-104 258 0
105 -249 -252 0
-105 249 0
-105 252 0
-106 -107 -110 0
-106 107 110 0
106 107 -110 0
106 -107 110 0
-107 -108 -109 0
-107 108 109 0
107 108 -109 0
107 -108 109 0
108 -250 -256 0
-108 250 0
-108 256 0
109 -248 -255 0
-109 248 0
-109 255 0
110 -251 -257 0
-110 251 0
-110 257 0
-111 112 113 0
-111 -112 -113 0
111 -112 113 0
111 112 -113 0
112 -247 -257 0
-112 247 0
-112 257 0
-113 108 110 0
-113 109 110 0
-113 108 109 0
113 -108 -109 0
113 -109 -110 0
113 -108 -110 0
114 -112 -113 0
-114 112 0
-114 113 0
-115 116 117 159 0
-115 116 140 159 0
-115 117 140 159 0
115 -116 -117 0
115 -117 -140 0
115 -159 0
115 -116 -140 0
-116 -89 -90 0
-116 89 90 0
116 89 -90 0
116 -89 90 0
117 -118 -119 0
-117 118 0
-117 119 0
-118 91 93 0
-118 -91 -93 0
118 -91 93 0
118 91 -93 0
119 -120 -122 0
-119 120 0
-119 122 0
-120 114 121 0
-120 -114 -121 0
120 -114 121 0
120 114 -121 0
-121 94 96 0
-121 -94 -96 0
121 -94 96 0
121 94 -96 0
122 -123 -125 0
-122 123 0
-122 125 0
-123 111 124 0
-123 -111 -124 0
123 -111 124 0
123 111 -124 0
-124 97 98 0
-124 -97 -98 0
124 -97 98 0
124 97 -98 0
-125 126 128 0
-125 128 139 0
-125 126 139 0
125 -128 -139 0
125 -126 -128 0
125 -126 -139 0
-126 106 127 0
-126 -106 -127 0
126 -106 127 0
126 106 -127 0
-127 99 100 0
-127 -99 -100 0
127 -99 100 0
127 99 -100 0
-128 129 130 0
-128 130 136 0
-128 129 136 0
128 -129 -136 0
128 -130 -136 0
128 -129 -130 0
-129 102 103 0
-129 -102 -103 0
129 -102 103 0
129 102 -103 0
-130 131 132 0
-130 131 133 0
130 -131 0
130 -132 -133 0
131 -249 -250 -252 -258 0
-131 258 0
-131 249 0
-131 252 0
-131 250 0
132 -255 -259 0
-132 255 0
-132 259 0
-133 -134 -135 0
-133 134 135 0
133 134 -135 0
133 -134 135 0
134 -252 -258 0
-134 252 0
-134 258 0
135 -249 -250 0
-135 249 0
-135 250 0
-136 -137 -138 0
-136 137 138 0
136 137 -138 0
136 -137 138 0
137 -255 -256 0
-137 255 0
-137 256 0
138 -248 -257 0
-138 248 0
-138 257 0
139 -137 -138 0
-139 137 0
-139 138 0
140 -141 -142 0
-140 141 0
-140 142 0
-141 -118 -119 0
-141 118 119 0
141 118 -119 0
141 -118 119 0
142 -143 -144 0
-142 143 0
-142 144 0
-143 -120 -122 0
-143 120 122 0
143 120 -122 0
143 -120 122 0
144 -145 -146 0
-144 145 0
-144 146 0
-145 123 125 0
-145 -123 -125 0
145 -123 125 0
145 123 -125 0
146 -147 -149 0
-146 147 0
-146 149 0
-147 139 148 0
-147 -139 -148 0
147 -139 148 0
147 139 -148 0
-148 126 128 0
-148 -126 -128 0
148 -126 128 0
148 126 -128 0
149 -150 -152 0
-149 150 0
-149 152 0
-150 136 151 0
-150 -136 -151 0
150 -136 151 0
150 136 -151 0
-151 129 130 0
-151 -129 -130 0
151 -129 130 0
151 129 -130 0
-152 153 154 0
-152 154 158 0
-152 153 158 0
152 -154 -158 0
152 -153 -154 0
152 -153 -158 0
-153 132 133 0
-153 -132 -133 0
153 -132 133 0
153 132 -133 0
-154 155 157 0
-154 156 157 0
-154 155 156 0
154 -155 -156 0
154 -156 -157 0
154 -155 -157 0
155 -250 -258 0
-155 250 0
-155 258 0
156 -249 -255 0
-156 249 0
-156 255 0
157 -257 -259 0
-157 257 0
-157 259 0
158 -256 -257 0
-158 256 0
-158 257 0
159 -160 -141 142 -161 0
159 -160 141 -142 -161 0
-159 161 0
-159 141 142 0
-159 160 0
-159 -141 -142 0
-160 -116 -117 0
-160 116 117 0
160 116 -117 0
160 -116 117 0
161 -145 146 -162 -163 0
161 145 -146 -162 -163 0
-161 162 0
-161 -145 -146 0
-161 163 0
-161 145 146 0
-162 -143 -144 0
-162 143 144 0
162 143 -144 0
162 -143 144 0
163 -147 150 -152 -164 0
163 -147 -150 152 -164 0
-163 164 0
-163 150 152 0
-163 147 0
-163 -150 -152 0
164 158 -165 -166 -168 0
164 -158 165 -166 -168 0
-164 166 0
-164 158 165 0
-164 168 0
-164 -158 -165 0
-165 153 154 0
-165 -153 -154 0
165 -153 154 0
165 153 -154 0
-166 157 167 0
-166 -157 -167 0
166 -157 167 0
166 157 -167 0
-167 -155 -156 0
-167 155 156 0
167 155 -156 0
167 -155 156 0
168 -249 -255 -257 -258 0
-168 258 0
-168 249 0
-168 257 0
-168 255 0
-169 170 190 0
-169 -170 -190 0
169 -170 190 0
169 170 -190 0
-170 171 180 0
-170 -171 -180 0
170 -171 180 0
170 171 -180 0
-171 172 176 0
-171 -172 -176 0
171 -172 176 0
171 172 -176 0
-172 173 174 0
-172 -173 -174 0
172 -173 174 0
172 173 -174 0
-173 15 33 0
-173 16 33 0
-173 15 16 0
173 -15 -16 0
173 -16 -33 0
173 -15 -33 0
-174 12 175 0
-174 -12 -175 0
174 -12 175 0
174 12 -175 0
-175 -11 -18 0
-175 11 18 0
175 11 -18 0
175 -11 18 0
-176 17 177 0
-176 177 178 0
-176 17 178 0
176 -177 -178 0
176 -17 -177 0
176 -17 -178 0
-177 23 57 0
-177 27 57 0
-177 23 27 0
177 -23 -27 0
177 -27 -57 0
177 -23 -57 0
-178 16 179 0
-178 -16 -179 0
178 -16 179 0
178 16 -179 0
-179 -15 -33 0
-179 15 33 0
179 15 -33 0
179 -15 33 0
-180 181 182 0
-180 182 184 0
-180 181 184 0
180 -181 -184 0
180 -182 -184 0
180 -181 -182 0
-181 24 29 0
-181 28 29 0
-181 24 28 0
181 -24 -28 0
181 -28 -29 0
181 -24 -29 0
-182 178 183 0
-182 -178 -183 0
182 -178 183 0
182 178 -183 0
-183 17 177 0
-183 -17 -177 0
183 -17 177 0
183 17 -177 0
-184 185 186 0
-184 186 188 0
-184 185 188 0
184 -185 -188 0
184 -186 -188 0
184 -185 -186 0
-185 53 84 0
-185 54 84 0
-185 53 54 0
185 -53 -54 0
185 -54 -84 0
185 -53 -84 0
-186 27 187 0
-186 -27 -187 0
186 -27 187 0
186 27 -187 0
-187 -23 -57 0
-187 23 57 0
187 23 -57 0
187 -23 57 0
-188 24 189 0
-188 -24 -189 0
188 -24 189 0
188 24 -189 0
-189 -28 -29 0
-189 28 29 0
189 28 -29 0
189 -28 29 0
-190 191 200 0
-190 200 202 0
-190 191 202 0
190 -191 -202 0
190 -200 -202 0
190 -191 -200 0
-191 192 193 0
-191 193 198 0
-191 192 198 0
191 -192 -198 0
191 -193 -198 0
191 -192 -193 0
-192 46 55 0
-192 42 46 0
-192 42 55 0
192 -42 -46 0
192 -46 -55 0
192 -42 -55 0
-193 194 195 0
-193 195 197 0
-193 194 197 0
193 -194 -197 0
193 -195 -197 0
193 -194 -195 0
-194 47 112 0
-194 81 112 0
-194 47 81 0
194 -47 -81 0
194 -81 -112 0
194 -47 -112 0
-195 53 196 0
-195 -53 -196 0
195 -53 196 0
195 53 -196 0
-196 -54 -84 0
-196 54 84 0
196 54 -84 0
196 -54 84 0
-197 72 80 0
-197 79 80 0
-197 72 79 0
197 -72 -79 0
197 -79 -80 0
197 -72 -80 0
-198 188 199 0
-198 -188 -199 0
198 -188 199 0
198 188 -199 0
-199 185 186 0
-199 -185 -186 0
199 -185 186 0
199 185 -186 0
-200 184 201 0
-200 -184 -201 0
200 -184 201 0
200 184 -201 0
-201 181 182 0
-201 -181 -182 0
201 -181 182 0
201 181 -182 0
-202 203 212 0
-202 212 214 0
-202 203 214 0
202 -203 -214 0
202 -212 -214 0
202 -203 -212 0
-203 204 206 0
-203 206 210 0
-203 204 210 0
203 -204 -210 0
203 -206 -210 0
203 -204 -206 0
-204 42 205 0
-204 -42 -205 0
204 -42 205 0
204 42 -205 0
-205 -46 -55 0
-205 46 55 0
205 46 -55 0
205 -46 55 0
-206 48 207 0
-206 207 208 0
-206 48 208 0
206 -48 -208 0
206 -207 -208 0
206 -48 -207 0
-207 73 110 0
-207 108 110 0
-207 73 108 0
207 -73 -108 0
207 -108 -110 0
207 -73 -110 0
-208 81 209 0
-208 -81 -209 0
208 -81 209 0
208 81 -209 0
-209 -47 -112 0
-209 47 112 0
209 47 -112 0
209 -47 112 0
-210 197 211 0
-210 -197 -211 0
210 -197 211 0
210 197 -211 0
-211 194 195 0
-211 -194 -195 0
211 -194 195 0
211 194 -195 0
-212 198 213 0
-212 -198 -213 0
212 -198 213 0
212 198 -213 0
-213 192 193 0
-213 -192 -193 0
213 -192 193 0
213 192 -193 0
-214 215 220 0
-214 220 222 0
-214 215 222 0
214 -215 -222 0
214 -220 -222 0
214 -215 -220 0
-215 216 217 0
-215 217 218 0
-215 216 218 0
215 -216 -218 0
215 -217 -218 0
215 -216 -217 0
-216 72 78 0
-216 -72 -78 0
216 -72 78 0
216 72 -78 0
-217 101 109 0
-217 74 101 0
-217 74 109 0
217 -74 -101 0
217 -101 -109 0
217 -74 -109 0
-218 208 219 0
-218 -208 -219 0
218 -208 219 0
218 208 -219 0
-219 48 207 0
-219 -48 -207 0
219 -48 207 0
219 48 -207 0
-220 210 221 0
-220 -210 -221 0
220 -210 221 0
220 210 -221 0
-221 204 206 0
-221 -204 -206 0
221 -204 206 0
221 204 -206 0
-222 223 229 0
-222 229 231 0
-222 223 231 0
222 -223 -231 0
222 -229 -231 0
222 -223 -229 0
-223 224 225 0
-223 225 227 0
-223 224 227 0
223 -224 -227 0
223 -225 -227 0
223 -224 -225 0
-224 102 138 0
-224 137 138 0
-224 102 137 0
224 -102 -137 0
224 -137 -138 0
224 -102 -138 0
-225 108 226 0
-225 -108 -226 0
225 -108 226 0
225 108 -226 0
-226 -73 -110 0
-226 73 110 0
226 73 -110 0
226 -73 110 0
-227 74 228 0
-227 -74 -228 0
227 -74 228 0
227 74 -228 0
-228 -101 -109 0
-228 101 109 0
228 101 -109 0
228 -101 109 0
-229 218 230 0
-229 -218 -230 0
229 -218 230 0
229 218 -230 0
-230 216 217 0
-230 -216 -217 0
230 -216 217 0
230 216 -217 0
-231 232 235 0
-231 235 237 0
-231 232 237 0
231 -232 -237 0
231 -235 -237 0
231 -232 -235 0
-232 103 233 0
-232 103 131 0
-232 131 233 0
232 -131 -233 0
232 -103 -233 0
232 -103 -131 0
-233 137 234 0
-233 -137 -234 0
233 -137 234 0
233 137 -234 0
-234 -102 -138 0
-234 102 138 0
234 102 -138 0
234 -102 138 0
-235 227 236 0
-235 -227 -236 0
235 -227 236 0
235 227 -236 0
-236 224 225 0
-236 -224 -225 0
236 -224 225 0
236 224 -225 0
-237 238 240 0
-237 240 242 0
-237 238 242 0
237 -238 -242 0
237 -240 -242 0
237 -238 -240 0
-238 259 239 0
-238 255 158 0
-238 158 239 0
-238 259 158 0
-238 255 239 0
238 -158 -239 0
238 -255 -259 -239 0
238 -255 -259 -158 0
239 -156 -157 0
-239 156 0
-239 157 0
-240 233 241 0
-240 -233 -241 0
240 -233 241 0
240 233 -241 0
-241 -103 -131 0
-241 103 131 0
241 103 -131 0
241 -103 131 0
-242 133 243 0
-242 243 245 0
-242 133 245 0
242 -133 -245 0
242 -243 -245 0
242 -133 -243 0
-243 239 244 0
-243 -239 -244 0
243 -239 244 0
243 239 -244 0
-244 -132 -158 0
-244 132 158 0
244 132 -158 0
244 -132 158 0
-245 168 246 0
-245 155 168 0
-245 155 246 0
245 -155 -168 0
245 -168 -246 0
245 -155 -246 0
-246 -156 -157 0
-246 156 157 0
246 156 -157 0
246 -156 157 0
-261 0
2 0

